0000000000000000
0000000000000000
0000011000000000
0001111111100000
0000000111100000
0000000011100000
0000000001100000
0000000001100000
0000000001100000
0000000001100000
0000000011110000
0000011100110000
0000111100110000
0000111000110000
0001000000100000
0000000000000000
